p cnf 1535
-20 -482
-21 -485
-22 -488
-23 -491
-24 -494
-25 -497
-26 -500
-27 -503
-28 -506
-29 -509
-30 -512
-31 -515
-32 -518
-33 -521
-34 -524
-35 -527
-36 -530
-37 -533
-38 -536
-39 537
-40 538
-41 539
-42 540
-43 541
-44 542
-45 543
-46 544
-47 545
-48 546
-49 547
-50 548
-51 549
-52 550
-53 551
-54 -21
-54 -22
21 22 54
-55 -23
-55 -24
23 24 55
-56 -25
-56 -26
25 26 56
-57 -27
-57 -28
27 28 57
-58 -29
-58 -30
29 30 58
-59 -31
-59 -32
31 32 59
-60 -33
-60 -34
33 34 60
-61 -35
-61 -36
35 36 61
-62 -37
-62 -38
37 38 62
-63 -39
-63 -40
39 40 63
-64 -41
-64 -42
41 42 64
-65 -43
-65 -44
43 44 65
-66 -45
-66 -46
45 46 66
-67 -47
-67 -48
47 48 67
-68 -49
-68 -50
49 50 68
-69 -51
-69 -52
51 52 69
-70 54
-70 55
-54 -55 70
-71 56
-71 57
-56 -57 71
-72 58
-72 59
-58 -59 72
-73 60
-73 61
-60 -61 73
-74 62
-74 63
-62 -63 74
-75 64
-75 65
-64 -65 75
-76 66
-76 67
-66 -67 76
-77 68
-77 69
-68 -69 77
-78 70
-78 71
-70 -71 78
-79 72
-79 73
-72 -73 79
-80 74
-80 75
-74 -75 80
-81 76
-81 77
-76 -77 81
-82 78
-82 79
-78 -79 82
-83 80
-83 81
-80 -81 83
-84 82
-84 83
-82 -83 84
-85 -53
-85 84
53 -84 85
-86 -20
-86 21
20 -21 86
-87 20
-87 -21
-20 21 87
-88 -86
-88 -87
86 87 88
-89 20
-89 21
-20 -21 89
-90 -20
-90 -88
20 88 90
-91 20
-91 88
-20 -88 91
-92 -90
-92 -91
90 91 92
-93 20
-93 -88
-20 88 93
-94 -89
-94 -93
89 93 94
-95 -21
-95 22
21 -22 95
-96 21
-96 -22
-21 22 96
-97 -95
-97 -96
95 96 97
-98 21
-98 22
-21 -22 98
-99 94
-99 -97
-94 97 99
-100 -94
-100 97
94 -97 100
-101 -99
-101 -100
99 100 101
-102 -94
-102 -97
94 97 102
-103 -98
-103 -102
98 102 103
-104 -22
-104 23
22 -23 104
-105 22
-105 -23
-22 23 105
-106 -104
-106 -105
104 105 106
-107 22
-107 23
-22 -23 107
-108 103
-108 -106
-103 106 108
-109 -103
-109 106
103 -106 109
-110 -108
-110 -109
108 109 110
-111 -103
-111 -106
103 106 111
-112 -107
-112 -111
107 111 112
-113 -23
-113 24
23 -24 113
-114 23
-114 -24
-23 24 114
-115 -113
-115 -114
113 114 115
-116 23
-116 24
-23 -24 116
-117 112
-117 -115
-112 115 117
-118 -112
-118 115
112 -115 118
-119 -117
-119 -118
117 118 119
-120 -112
-120 -115
112 115 120
-121 -116
-121 -120
116 120 121
-122 -24
-122 25
24 -25 122
-123 24
-123 -25
-24 25 123
-124 -122
-124 -123
122 123 124
-125 24
-125 25
-24 -25 125
-126 121
-126 -124
-121 124 126
-127 -121
-127 124
121 -124 127
-128 -126
-128 -127
126 127 128
-129 -121
-129 -124
121 124 129
-130 -125
-130 -129
125 129 130
-131 -25
-131 26
25 -26 131
-132 25
-132 -26
-25 26 132
-133 -131
-133 -132
131 132 133
-134 25
-134 26
-25 -26 134
-135 130
-135 -133
-130 133 135
-136 -130
-136 133
130 -133 136
-137 -135
-137 -136
135 136 137
-138 -130
-138 -133
130 133 138
-139 -134
-139 -138
134 138 139
-140 -26
-140 27
26 -27 140
-141 26
-141 -27
-26 27 141
-142 -140
-142 -141
140 141 142
-143 26
-143 27
-26 -27 143
-144 139
-144 -142
-139 142 144
-145 -139
-145 142
139 -142 145
-146 -144
-146 -145
144 145 146
-147 -139
-147 -142
139 142 147
-148 -143
-148 -147
143 147 148
-149 -27
-149 28
27 -28 149
-150 27
-150 -28
-27 28 150
-151 -149
-151 -150
149 150 151
-152 27
-152 28
-27 -28 152
-153 148
-153 -151
-148 151 153
-154 -148
-154 151
148 -151 154
-155 -153
-155 -154
153 154 155
-156 -148
-156 -151
148 151 156
-157 -152
-157 -156
152 156 157
-158 -28
-158 29
28 -29 158
-159 28
-159 -29
-28 29 159
-160 -158
-160 -159
158 159 160
-161 28
-161 29
-28 -29 161
-162 157
-162 -160
-157 160 162
-163 -157
-163 160
157 -160 163
-164 -162
-164 -163
162 163 164
-165 -157
-165 -160
157 160 165
-166 -161
-166 -165
161 165 166
-167 -29
-167 30
29 -30 167
-168 29
-168 -30
-29 30 168
-169 -167
-169 -168
167 168 169
-170 29
-170 30
-29 -30 170
-171 166
-171 -169
-166 169 171
-172 -166
-172 169
166 -169 172
-173 -171
-173 -172
171 172 173
-174 -166
-174 -169
166 169 174
-175 -170
-175 -174
170 174 175
-176 -30
-176 31
30 -31 176
-177 30
-177 -31
-30 31 177
-178 -176
-178 -177
176 177 178
-179 30
-179 31
-30 -31 179
-180 175
-180 -178
-175 178 180
-181 -175
-181 178
175 -178 181
-182 -180
-182 -181
180 181 182
-183 -175
-183 -178
175 178 183
-184 -179
-184 -183
179 183 184
-185 -31
-185 32
31 -32 185
-186 31
-186 -32
-31 32 186
-187 -185
-187 -186
185 186 187
-188 31
-188 32
-31 -32 188
-189 184
-189 -187
-184 187 189
-190 -184
-190 187
184 -187 190
-191 -189
-191 -190
189 190 191
-192 -184
-192 -187
184 187 192
-193 -188
-193 -192
188 192 193
-194 -32
-194 33
32 -33 194
-195 32
-195 -33
-32 33 195
-196 -194
-196 -195
194 195 196
-197 32
-197 33
-32 -33 197
-198 193
-198 -196
-193 196 198
-199 -193
-199 196
193 -196 199
-200 -198
-200 -199
198 199 200
-201 -193
-201 -196
193 196 201
-202 -197
-202 -201
197 201 202
-203 -33
-203 34
33 -34 203
-204 33
-204 -34
-33 34 204
-205 -203
-205 -204
203 204 205
-206 33
-206 34
-33 -34 206
-207 202
-207 -205
-202 205 207
-208 -202
-208 205
202 -205 208
-209 -207
-209 -208
207 208 209
-210 -202
-210 -205
202 205 210
-211 -206
-211 -210
206 210 211
-212 -34
-212 35
34 -35 212
-213 34
-213 -35
-34 35 213
-214 -212
-214 -213
212 213 214
-215 34
-215 35
-34 -35 215
-216 211
-216 -214
-211 214 216
-217 -211
-217 214
211 -214 217
-218 -216
-218 -217
216 217 218
-219 -211
-219 -214
211 214 219
-220 -215
-220 -219
215 219 220
-221 -35
-221 36
35 -36 221
-222 35
-222 -36
-35 36 222
-223 -221
-223 -222
221 222 223
-224 35
-224 36
-35 -36 224
-225 220
-225 -223
-220 223 225
-226 -220
-226 223
220 -223 226
-227 -225
-227 -226
225 226 227
-228 -220
-228 -223
220 223 228
-229 -224
-229 -228
224 228 229
-230 -36
-230 37
36 -37 230
-231 36
-231 -37
-36 37 231
-232 -230
-232 -231
230 231 232
-233 36
-233 37
-36 -37 233
-234 229
-234 -232
-229 232 234
-235 -229
-235 232
229 -232 235
-236 -234
-236 -235
234 235 236
-237 -229
-237 -232
229 232 237
-238 -233
-238 -237
233 237 238
-239 -37
-239 38
37 -38 239
-240 37
-240 -38
-37 38 240
-241 -239
-241 -240
239 240 241
-242 37
-242 38
-37 -38 242
-243 238
-243 -241
-238 241 243
-244 -238
-244 241
238 -241 244
-245 -243
-245 -244
243 244 245
-246 -238
-246 -241
238 241 246
-247 -242
-247 -246
242 246 247
-248 -38
-248 39
38 -39 248
-249 38
-249 -39
-38 39 249
-250 -248
-250 -249
248 249 250
-251 38
-251 39
-38 -39 251
-252 247
-252 -250
-247 250 252
-253 -247
-253 250
247 -250 253
-254 -252
-254 -253
252 253 254
-255 -247
-255 -250
247 250 255
-256 -251
-256 -255
251 255 256
-257 -39
-257 40
39 -40 257
-258 39
-258 -40
-39 40 258
-259 -257
-259 -258
257 258 259
-260 39
-260 40
-39 -40 260
-261 256
-261 -259
-256 259 261
-262 -256
-262 259
256 -259 262
-263 -261
-263 -262
261 262 263
-264 -256
-264 -259
256 259 264
-265 -260
-265 -264
260 264 265
-266 -40
-266 41
40 -41 266
-267 40
-267 -41
-40 41 267
-268 -266
-268 -267
266 267 268
-269 40
-269 41
-40 -41 269
-270 265
-270 -268
-265 268 270
-271 -265
-271 268
265 -268 271
-272 -270
-272 -271
270 271 272
-273 -265
-273 -268
265 268 273
-274 -269
-274 -273
269 273 274
-275 -41
-275 42
41 -42 275
-276 41
-276 -42
-41 42 276
-277 -275
-277 -276
275 276 277
-278 41
-278 42
-41 -42 278
-279 274
-279 -277
-274 277 279
-280 -274
-280 277
274 -277 280
-281 -279
-281 -280
279 280 281
-282 -274
-282 -277
274 277 282
-283 -278
-283 -282
278 282 283
-284 -42
-284 43
42 -43 284
-285 42
-285 -43
-42 43 285
-286 -284
-286 -285
284 285 286
-287 42
-287 43
-42 -43 287
-288 283
-288 -286
-283 286 288
-289 -283
-289 286
283 -286 289
-290 -288
-290 -289
288 289 290
-291 -283
-291 -286
283 286 291
-292 -287
-292 -291
287 291 292
-293 -43
-293 44
43 -44 293
-294 43
-294 -44
-43 44 294
-295 -293
-295 -294
293 294 295
-296 43
-296 44
-43 -44 296
-297 292
-297 -295
-292 295 297
-298 -292
-298 295
292 -295 298
-299 -297
-299 -298
297 298 299
-300 -292
-300 -295
292 295 300
-301 -296
-301 -300
296 300 301
-302 -44
-302 45
44 -45 302
-303 44
-303 -45
-44 45 303
-304 -302
-304 -303
302 303 304
-305 44
-305 45
-44 -45 305
-306 301
-306 -304
-301 304 306
-307 -301
-307 304
301 -304 307
-308 -306
-308 -307
306 307 308
-309 -301
-309 -304
301 304 309
-310 -305
-310 -309
305 309 310
-311 -45
-311 46
45 -46 311
-312 45
-312 -46
-45 46 312
-313 -311
-313 -312
311 312 313
-314 45
-314 46
-45 -46 314
-315 310
-315 -313
-310 313 315
-316 -310
-316 313
310 -313 316
-317 -315
-317 -316
315 316 317
-318 -310
-318 -313
310 313 318
-319 -314
-319 -318
314 318 319
-320 -46
-320 47
46 -47 320
-321 46
-321 -47
-46 47 321
-322 -320
-322 -321
320 321 322
-323 46
-323 47
-46 -47 323
-324 319
-324 -322
-319 322 324
-325 -319
-325 322
319 -322 325
-326 -324
-326 -325
324 325 326
-327 -319
-327 -322
319 322 327
-328 -323
-328 -327
323 327 328
-329 -47
-329 48
47 -48 329
-330 47
-330 -48
-47 48 330
-331 -329
-331 -330
329 330 331
-332 47
-332 48
-47 -48 332
-333 328
-333 -331
-328 331 333
-334 -328
-334 331
328 -331 334
-335 -333
-335 -334
333 334 335
-336 -328
-336 -331
328 331 336
-337 -332
-337 -336
332 336 337
-338 -48
-338 49
48 -49 338
-339 48
-339 -49
-48 49 339
-340 -338
-340 -339
338 339 340
-341 48
-341 49
-48 -49 341
-342 337
-342 -340
-337 340 342
-343 -337
-343 340
337 -340 343
-344 -342
-344 -343
342 343 344
-345 -337
-345 -340
337 340 345
-346 -341
-346 -345
341 345 346
-347 -49
-347 50
49 -50 347
-348 49
-348 -50
-49 50 348
-349 -347
-349 -348
347 348 349
-350 49
-350 50
-49 -50 350
-351 346
-351 -349
-346 349 351
-352 -346
-352 349
346 -349 352
-353 -351
-353 -352
351 352 353
-354 -346
-354 -349
346 349 354
-355 -350
-355 -354
350 354 355
-356 -50
-356 51
50 -51 356
-357 50
-357 -51
-50 51 357
-358 -356
-358 -357
356 357 358
-359 50
-359 51
-50 -51 359
-360 355
-360 -358
-355 358 360
-361 -355
-361 358
355 -358 361
-362 -360
-362 -361
360 361 362
-363 -355
-363 -358
355 358 363
-364 -359
-364 -363
359 363 364
-365 -51
-365 52
51 -52 365
-366 51
-366 -52
-51 52 366
-367 -365
-367 -366
365 366 367
-368 51
-368 52
-51 -52 368
-369 364
-369 -367
-364 367 369
-370 -364
-370 367
364 -367 370
-371 -369
-371 -370
369 370 371
-372 -364
-372 -367
364 367 372
-373 -368
-373 -372
368 372 373
-374 -52
-374 53
52 -53 374
-375 52
-375 -53
-52 53 375
-376 -374
-376 -375
374 375 376
-377 52
-377 53
-52 -53 377
-378 373
-378 -376
-373 376 378
-379 -373
-379 376
373 -376 379
-380 -378
-380 -379
378 379 380
-381 -373
-381 -376
373 376 381
-382 -377
-382 -381
377 381 382
-383 20
-383 -92
-20 92 383
-384 -20
-384 22
20 -22 384
-385 -383
-385 -384
383 384 385
-386 20
-386 -101
-20 101 386
-387 -20
-387 23
20 -23 387
-388 -386
-388 -387
386 387 388
-389 20
-389 -110
-20 110 389
-390 -20
-390 24
20 -24 390
-391 -389
-391 -390
389 390 391
-392 20
-392 -119
-20 119 392
-393 -20
-393 25
20 -25 393
-394 -392
-394 -393
392 393 394
-395 20
-395 -128
-20 128 395
-396 -20
-396 26
20 -26 396
-397 -395
-397 -396
395 396 397
-398 20
-398 -137
-20 137 398
-399 -20
-399 27
20 -27 399
-400 -398
-400 -399
398 399 400
-401 20
-401 -146
-20 146 401
-402 -20
-402 28
20 -28 402
-403 -401
-403 -402
401 402 403
-404 20
-404 -155
-20 155 404
-405 -20
-405 29
20 -29 405
-406 -404
-406 -405
404 405 406
-407 20
-407 -164
-20 164 407
-408 -20
-408 30
20 -30 408
-409 -407
-409 -408
407 408 409
-410 20
-410 -173
-20 173 410
-411 -20
-411 31
20 -31 411
-412 -410
-412 -411
410 411 412
-413 20
-413 -182
-20 182 413
-414 -20
-414 32
20 -32 414
-415 -413
-415 -414
413 414 415
-416 20
-416 -191
-20 191 416
-417 -20
-417 33
20 -33 417
-418 -416
-418 -417
416 417 418
-419 20
-419 -200
-20 200 419
-420 -20
-420 34
20 -34 420
-421 -419
-421 -420
419 420 421
-422 20
-422 -209
-20 209 422
-423 -20
-423 35
20 -35 423
-424 -422
-424 -423
422 423 424
-425 20
-425 -218
-20 218 425
-426 -20
-426 36
20 -36 426
-427 -425
-427 -426
425 426 427
-428 20
-428 -227
-20 227 428
-429 -20
-429 37
20 -37 429
-430 -428
-430 -429
428 429 430
-431 20
-431 -236
-20 236 431
-432 -20
-432 38
20 -38 432
-433 -431
-433 -432
431 432 433
-434 20
-434 -245
-20 245 434
-435 -20
-435 39
20 -39 435
-436 -434
-436 -435
434 435 436
-437 20
-437 -254
-20 254 437
-438 -20
-438 40
20 -40 438
-439 -437
-439 -438
437 438 439
-440 20
-440 -263
-20 263 440
-441 -20
-441 41
20 -41 441
-442 -440
-442 -441
440 441 442
-443 20
-443 -272
-20 272 443
-444 -20
-444 42
20 -42 444
-445 -443
-445 -444
443 444 445
-446 20
-446 -281
-20 281 446
-447 -20
-447 43
20 -43 447
-448 -446
-448 -447
446 447 448
-449 20
-449 -290
-20 290 449
-450 -20
-450 44
20 -44 450
-451 -449
-451 -450
449 450 451
-452 20
-452 -299
-20 299 452
-453 -20
-453 45
20 -45 453
-454 -452
-454 -453
452 453 454
-455 20
-455 -308
-20 308 455
-456 -20
-456 46
20 -46 456
-457 -455
-457 -456
455 456 457
-458 20
-458 -317
-20 317 458
-459 -20
-459 47
20 -47 459
-460 -458
-460 -459
458 459 460
-461 20
-461 -326
-20 326 461
-462 -20
-462 48
20 -48 462
-463 -461
-463 -462
461 462 463
-464 20
-464 -335
-20 335 464
-465 -20
-465 49
20 -49 465
-466 -464
-466 -465
464 465 466
-467 20
-467 -344
-20 344 467
-468 -20
-468 50
20 -50 468
-469 -467
-469 -468
467 468 469
-470 20
-470 -353
-20 353 470
-471 -20
-471 51
20 -51 471
-472 -470
-472 -471
470 471 472
-473 20
-473 -362
-20 362 473
-474 -20
-474 52
20 -52 474
-475 -473
-475 -474
473 474 475
-476 20
-476 -371
-20 371 476
-477 -20
-477 53
20 -53 477
-478 -476
-478 -477
476 477 478
-479 20
-479 -380
-20 380 479
-480 1
-480 85
-1 -85 480
-481 -85
-481 86
85 -86 481
-482 -480
-482 -481
480 481 482
-483 2
-483 85
-2 -85 483
-484 -85
-484 -385
85 385 484
-485 -483
-485 -484
483 484 485
-486 3
-486 85
-3 -85 486
-487 -85
-487 -388
85 388 487
-488 -486
-488 -487
486 487 488
-489 4
-489 85
-4 -85 489
-490 -85
-490 -391
85 391 490
-491 -489
-491 -490
489 490 491
-492 5
-492 85
-5 -85 492
-493 -85
-493 -394
85 394 493
-494 -492
-494 -493
492 493 494
-495 6
-495 85
-6 -85 495
-496 -85
-496 -397
85 397 496
-497 -495
-497 -496
495 496 497
-498 7
-498 85
-7 -85 498
-499 -85
-499 -400
85 400 499
-500 -498
-500 -499
498 499 500
-501 8
-501 85
-8 -85 501
-502 -85
-502 -403
85 403 502
-503 -501
-503 -502
501 502 503
-504 9
-504 85
-9 -85 504
-505 -85
-505 -406
85 406 505
-506 -504
-506 -505
504 505 506
-507 10
-507 85
-10 -85 507
-508 -85
-508 -409
85 409 508
-509 -507
-509 -508
507 508 509
-510 11
-510 85
-11 -85 510
-511 -85
-511 -412
85 412 511
-512 -510
-512 -511
510 511 512
-513 12
-513 85
-12 -85 513
-514 -85
-514 -415
85 415 514
-515 -513
-515 -514
513 514 515
-516 13
-516 85
-13 -85 516
-517 -85
-517 -418
85 418 517
-518 -516
-518 -517
516 517 518
-519 14
-519 85
-14 -85 519
-520 -85
-520 -421
85 421 520
-521 -519
-521 -520
519 520 521
-522 15
-522 85
-15 -85 522
-523 -85
-523 -424
85 424 523
-524 -522
-524 -523
522 523 524
-525 16
-525 85
-16 -85 525
-526 -85
-526 -427
85 427 526
-527 -525
-527 -526
525 526 527
-528 17
-528 85
-17 -85 528
-529 -85
-529 -430
85 430 529
-530 -528
-530 -529
528 529 530
-531 18
-531 85
-18 -85 531
-532 -85
-532 -433
85 433 532
-533 -531
-533 -532
531 532 533
-534 19
-534 85
-19 -85 534
-535 -85
-535 -436
85 436 535
-536 -534
-536 -535
534 535 536
-537 -85
-537 -439
85 439 537
-538 -85
-538 -442
85 442 538
-539 -85
-539 -445
85 445 539
-540 -85
-540 -448
85 448 540
-541 -85
-541 -451
85 451 541
-542 -85
-542 -454
85 454 542
-543 -85
-543 -457
85 457 543
-544 -85
-544 -460
85 460 544
-545 -85
-545 -463
85 463 545
-546 -85
-546 -466
85 466 546
-547 -85
-547 -469
85 469 547
-548 -85
-548 -472
85 472 548
-549 -85
-549 -475
85 475 549
-550 -85
-550 -478
85 478 550
-551 -85
-551 479
85 -479 551
-552 -53
-552 382
53 -382 552
-553 20
-553 -552
-20 552 553
553
